6,55
1
2
10,31
4,31
31,42
5
14,16
6
7
4
8
15,27
31,52
11,31
10
31,41
31,37
18,21,40
9,22,54
12
13
14
31,58
0,40
32,44,57
31,39
21,35,38
19
23
24
25
45,50
58
14,45
30,31
28
30
16,30
34,46
25,44,57
8,45
37
17,33
39
26,36
41
42
43
44
47
30,45
18,49
31,56
45,51
48
49
31,48
51
50
31,47
1,31
45,53
52
8,44,57
53
2,31
19,31
9,43
32
3,20
56
57
29
